(set-logic QF_LRA)
(declare-fun fluent_robot_at_r0_p0@0 () Bool)
(declare-fun fluent_robot_at_r1_p0@0 () Bool)
(declare-fun fluent_robot_free_r0@1 () Bool)
(declare-fun fluent_robot_at_r0_p1@0 () Bool)
(declare-fun fluent_robot_free_r1@1 () Bool)
(declare-fun fluent_robot_free_r0@0 () Bool)
(declare-fun fluent_robot_free_r1@0 () Bool)
(declare-fun fluent_ready_plt0_p0_t0@1 () Bool)
(declare-fun fluent_ready_plt0_p1_t0@1 () Bool)
(declare-fun fluent_robot_at_r1_p1@0 () Bool)
(declare-fun fluent_pallet_at_plt0_p0@1 () Bool)
(declare-fun fluent_pallet_at_plt0_p0@0 () Bool)
(declare-fun fluent_pallet_at_plt0_p1@0 () Bool)
(declare-fun fluent_pallet_at_plt0_p1@1 () Bool)
(declare-fun fluent_battery_level_r0@0 () Real)
(declare-fun fluent_robot_has_r0_plt0@1 () Bool)
(declare-fun fluent_robot_has_r1_plt0@1 () Bool)
(declare-fun fluent_battery_level_r1@0 () Real)
(declare-fun fluent_treated_plt0_t0@1 () Bool)
(declare-fun fluent_position_free_p0@1 () Bool)
(declare-fun fluent_position_free_p1@1 () Bool)
(declare-fun fluent_position_free_p0@0 () Bool)
(declare-fun fluent_position_free_p1@0 () Bool)
(declare-fun act_load_at_depot@1 () Bool)
(declare-fun parameter_load_at_depot_pos@1 () Real)
(declare-fun fluent_robot_has_r0_plt0@0 () Bool)
(declare-fun fluent_robot_has_r1_plt0@0 () Bool)
(declare-fun act_make_treatment@1 () Bool)
(declare-fun fluent_ready_plt0_p0_t0@0 () Bool)
(declare-fun fluent_ready_plt0_p1_t0@0 () Bool)
(declare-fun parameter_load_at_depot_r@1 () Real)
(declare-fun fluent_treated_plt0_t0@0 () Bool)
(declare-fun act_move@1 () Bool)
(declare-fun parameter_move_topos@1 () Real)
(declare-fun parameter_load_at_depot_pallet@1 () Real)
(declare-fun parameter_move_frompos@1 () Real)
(declare-fun parameter_move_r@1 () Real)
(declare-fun act_unload_at_depot@1 () Bool)
(declare-fun parameter_unload_at_depot_pos@1 () Real)
(declare-fun parameter_unload_at_depot_r@1 () Real)
(declare-fun fluent_robot_at_r0_p0@1 () Bool)
(declare-fun fluent_robot_at_r1_p0@1 () Bool)
(declare-fun fluent_robot_at_r0_p1@1 () Bool)
(declare-fun parameter_unload_at_depot_pallet@1 () Real)
(declare-fun fluent_robot_at_r1_p1@1 () Bool)
(declare-fun fluent_battery_level_r0@1 () Real)
(declare-fun fluent_battery_level_r1@1 () Real)
(declare-fun dur_make_treatment@1 () Real)
(declare-fun t@1 () Real)
(declare-fun act_load@1 () Bool)
(declare-fun parameter_load_t@1 () Real)
(declare-fun parameter_load_pos@1 () Real)
(declare-fun parameter_make_treatment_t@1 () Real)
(declare-fun parameter_make_treatment_pallet@1 () Real)
(declare-fun parameter_load_pallet@1 () Real)
(declare-fun parameter_make_treatment_r@1 () Real)
(declare-fun parameter_load_r@1 () Real)
(declare-fun parameter_make_treatment_pos@1 () Real)
(assert (let ((.def_0 (= parameter_load_r@1 1.0))) (let ((.def_1 (= parameter_load_r@1 0.0))) (let ((.def_2 (or .def_1 .def_0))) (let ((.def_3 (= parameter_make_treatment_r@1 1.0))) (let ((.def_4 (= parameter_make_treatment_r@1 0.0))) (let ((.def_5 (or .def_4 .def_3))) (let ((.def_6 (= parameter_load_pallet@1 4.0))) (let ((.def_7 (= parameter_make_treatment_pallet@1 4.0))) (let ((.def_8 (= parameter_load_pos@1 3.0))) (let ((.def_9 (= parameter_load_pos@1 2.0))) (let ((.def_10 (or .def_9 .def_8))) (let ((.def_11 (= parameter_make_treatment_t@1 5.0))) (let ((.def_12 (= parameter_load_t@1 5.0))) (let ((.def_13 (<= fluent_battery_level_r1@1 100.0))) (let ((.def_14 (<= 0.0 fluent_battery_level_r1@1))) (let ((.def_15 (<= fluent_battery_level_r0@1 100.0))) (let ((.def_16 (<= 0.0 fluent_battery_level_r0@1))) (let ((.def_17 (= parameter_unload_at_depot_pallet@1 4.0))) (let ((.def_18 (= parameter_unload_at_depot_r@1 1.0))) (let ((.def_19 (= parameter_unload_at_depot_r@1 0.0))) (let ((.def_20 (or .def_19 .def_18))) (let ((.def_21 (= parameter_unload_at_depot_pos@1 3.0))) (let ((.def_22 (= parameter_unload_at_depot_pos@1 2.0))) (let ((.def_23 (or .def_22 .def_21))) (let ((.def_24 (= parameter_move_r@1 1.0))) (let ((.def_25 (= parameter_move_r@1 0.0))) (let ((.def_26 (or .def_25 .def_24))) (let ((.def_27 (= parameter_move_frompos@1 3.0))) (let ((.def_28 (= parameter_move_frompos@1 2.0))) (let ((.def_29 (or .def_28 .def_27))) (let ((.def_30 (= parameter_move_topos@1 3.0))) (let ((.def_31 (= parameter_move_topos@1 2.0))) (let ((.def_32 (or .def_31 .def_30))) (let ((.def_33 (= parameter_load_at_depot_pallet@1 4.0))) (let ((.def_34 (= parameter_load_at_depot_r@1 1.0))) (let ((.def_35 (= parameter_load_at_depot_r@1 0.0))) (let ((.def_36 (or .def_35 .def_34))) (let ((.def_37 (= parameter_load_at_depot_pos@1 3.0))) (let ((.def_38 (= parameter_load_at_depot_pos@1 2.0))) (let ((.def_39 (or .def_38 .def_37))) (let ((.def_40 (= parameter_make_treatment_pos@1 3.0))) (let ((.def_41 (= parameter_make_treatment_pos@1 2.0))) (let ((.def_42 (or .def_41 .def_40))) (let ((.def_43 (and act_move@1 true .def_24))) (let ((.def_44 (= fluent_battery_level_r1@0 fluent_battery_level_r1@1))) (let ((.def_45 (not .def_44))) (let ((.def_46 (=> .def_45 .def_43))) (let ((.def_47 (and act_move@1 true .def_25))) (let ((.def_48 (= fluent_battery_level_r0@0 fluent_battery_level_r0@1))) (let ((.def_49 (not .def_48))) (let ((.def_50 (=> .def_49 .def_47))) (let ((.def_51 (and act_make_treatment@1 true .def_7 .def_40))) (let ((.def_52 (and act_unload_at_depot@1 true .def_17 .def_21))) (let ((.def_53 (and .def_52 .def_51))) (let ((.def_54 (not .def_53))) (let ((.def_55 (and act_load_at_depot@1 true .def_33 .def_37))) (let ((.def_56 (and .def_55 .def_51))) (let ((.def_57 (not .def_56))) (let ((.def_58 (and .def_55 .def_52))) (let ((.def_59 (not .def_58))) (let ((.def_60 (and act_load@1 true .def_6 .def_8))) (let ((.def_61 (and .def_60 .def_51))) (let ((.def_62 (not .def_61))) (let ((.def_63 (and .def_60 .def_52))) (let ((.def_64 (not .def_63))) (let ((.def_65 (and .def_60 .def_55))) (let ((.def_66 (not .def_65))) (let ((.def_67 (or .def_60 .def_55 .def_52 .def_51))) (let ((.def_68 (= fluent_pallet_at_plt0_p1@0 fluent_pallet_at_plt0_p1@1))) (let ((.def_69 (not .def_68))) (let ((.def_70 (=> .def_69 .def_67))) (let ((.def_71 (and act_make_treatment@1 true .def_7 .def_41))) (let ((.def_72 (and act_unload_at_depot@1 true .def_17 .def_22))) (let ((.def_73 (and .def_72 .def_71))) (let ((.def_74 (not .def_73))) (let ((.def_75 (and act_load_at_depot@1 true .def_33 .def_38))) (let ((.def_76 (and .def_75 .def_71))) (let ((.def_77 (not .def_76))) (let ((.def_78 (and .def_75 .def_72))) (let ((.def_79 (not .def_78))) (let ((.def_80 (and act_load@1 true .def_6 .def_9))) (let ((.def_81 (and .def_80 .def_71))) (let ((.def_82 (not .def_81))) (let ((.def_83 (and .def_80 .def_72))) (let ((.def_84 (not .def_83))) (let ((.def_85 (and .def_80 .def_75))) (let ((.def_86 (not .def_85))) (let ((.def_87 (or .def_80 .def_75 .def_72 .def_71))) (let ((.def_88 (= fluent_pallet_at_plt0_p0@0 fluent_pallet_at_plt0_p0@1))) (let ((.def_89 (not .def_88))) (let ((.def_90 (=> .def_89 .def_87))) (let ((.def_91 (and act_load@1 true .def_6 .def_12))) (let ((.def_92 (= fluent_treated_plt0_t0@0 fluent_treated_plt0_t0@1))) (let ((.def_93 (not .def_92))) (let ((.def_94 (=> .def_93 .def_91))) (let ((.def_95 (and act_make_treatment@1 true .def_40))) (let ((.def_96 (and act_load@1 true .def_8))) (let ((.def_97 (and .def_96 .def_95))) (let ((.def_98 (not .def_97))) (let ((.def_99 (or .def_96 .def_95))) (let ((.def_100 (= fluent_position_free_p1@0 fluent_position_free_p1@1))) (let ((.def_101 (not .def_100))) (let ((.def_102 (=> .def_101 .def_99))) (let ((.def_103 (and act_make_treatment@1 true .def_41))) (let ((.def_104 (and act_load@1 true .def_9))) (let ((.def_105 (and .def_104 .def_103))) (let ((.def_106 (not .def_105))) (let ((.def_107 (or .def_104 .def_103))) (let ((.def_108 (= fluent_position_free_p0@0 fluent_position_free_p0@1))) (let ((.def_109 (not .def_108))) (let ((.def_110 (=> .def_109 .def_107))) (let ((.def_111 (+ t@1 10.0))) (let ((.def_112 (= t@1 .def_111))) (let ((.def_113 (and act_make_treatment@1 true .def_112 .def_7 .def_40 .def_11))) (let ((.def_114 (and act_load@1 true .def_6 .def_8 .def_12))) (let ((.def_115 (and .def_114 .def_113))) (let ((.def_116 (not .def_115))) (let ((.def_117 (or .def_114 .def_113))) (let ((.def_118 (= fluent_ready_plt0_p1_t0@0 fluent_ready_plt0_p1_t0@1))) (let ((.def_119 (not .def_118))) (let ((.def_120 (=> .def_119 .def_117))) (let ((.def_121 (and act_make_treatment@1 true .def_112 .def_7 .def_41 .def_11))) (let ((.def_122 (and act_load@1 true .def_6 .def_9 .def_12))) (let ((.def_123 (and .def_122 .def_121))) (let ((.def_124 (not .def_123))) (let ((.def_125 (or .def_122 .def_121))) (let ((.def_126 (= fluent_ready_plt0_p0_t0@0 fluent_ready_plt0_p0_t0@1))) (let ((.def_127 (not .def_126))) (let ((.def_128 (=> .def_127 .def_125))) (let ((.def_129 (and act_make_treatment@1 true .def_3 .def_7))) (let ((.def_130 (and act_unload_at_depot@1 true .def_18 .def_17))) (let ((.def_131 (and .def_130 .def_129))) (let ((.def_132 (not .def_131))) (let ((.def_133 (and act_load_at_depot@1 true .def_34 .def_33))) (let ((.def_134 (and .def_133 .def_129))) (let ((.def_135 (not .def_134))) (let ((.def_136 (and .def_133 .def_130))) (let ((.def_137 (not .def_136))) (let ((.def_138 (and act_load@1 true .def_0 .def_6))) (let ((.def_139 (and .def_138 .def_129))) (let ((.def_140 (not .def_139))) (let ((.def_141 (and .def_138 .def_130))) (let ((.def_142 (not .def_141))) (let ((.def_143 (and .def_138 .def_133))) (let ((.def_144 (not .def_143))) (let ((.def_145 (or .def_138 .def_133 .def_130 .def_129))) (let ((.def_146 (= fluent_robot_has_r1_plt0@0 fluent_robot_has_r1_plt0@1))) (let ((.def_147 (not .def_146))) (let ((.def_148 (=> .def_147 .def_145))) (let ((.def_149 (and act_make_treatment@1 true .def_4 .def_7))) (let ((.def_150 (and act_unload_at_depot@1 true .def_19 .def_17))) (let ((.def_151 (and .def_150 .def_149))) (let ((.def_152 (not .def_151))) (let ((.def_153 (and act_load_at_depot@1 true .def_35 .def_33))) (let ((.def_154 (and .def_153 .def_149))) (let ((.def_155 (not .def_154))) (let ((.def_156 (and .def_153 .def_150))) (let ((.def_157 (not .def_156))) (let ((.def_158 (and act_load@1 true .def_1 .def_6))) (let ((.def_159 (and .def_158 .def_149))) (let ((.def_160 (not .def_159))) (let ((.def_161 (and .def_158 .def_150))) (let ((.def_162 (not .def_161))) (let ((.def_163 (and .def_158 .def_153))) (let ((.def_164 (not .def_163))) (let ((.def_165 (or .def_158 .def_153 .def_150 .def_149))) (let ((.def_166 (= fluent_robot_has_r0_plt0@0 fluent_robot_has_r0_plt0@1))) (let ((.def_167 (not .def_166))) (let ((.def_168 (=> .def_167 .def_165))) (let ((.def_169 (and act_make_treatment@1 true .def_3))) (let ((.def_170 (and act_unload_at_depot@1 true .def_18))) (let ((.def_171 (and .def_170 .def_169))) (let ((.def_172 (not .def_171))) (let ((.def_173 (and act_load_at_depot@1 true .def_34))) (let ((.def_174 (and .def_173 .def_169))) (let ((.def_175 (not .def_174))) (let ((.def_176 (and .def_173 .def_170))) (let ((.def_177 (not .def_176))) (let ((.def_178 (and act_load@1 true .def_0))) (let ((.def_179 (and .def_178 .def_169))) (let ((.def_180 (not .def_179))) (let ((.def_181 (and .def_178 .def_170))) (let ((.def_182 (not .def_181))) (let ((.def_183 (and .def_178 .def_173))) (let ((.def_184 (not .def_183))) (let ((.def_185 (or .def_178 .def_173 .def_170 .def_169))) (let ((.def_186 (= fluent_robot_free_r1@0 fluent_robot_free_r1@1))) (let ((.def_187 (not .def_186))) (let ((.def_188 (=> .def_187 .def_185))) (let ((.def_189 (and act_make_treatment@1 true .def_4))) (let ((.def_190 (and act_unload_at_depot@1 true .def_19))) (let ((.def_191 (and .def_190 .def_189))) (let ((.def_192 (not .def_191))) (let ((.def_193 (and act_load_at_depot@1 true .def_35))) (let ((.def_194 (and .def_193 .def_189))) (let ((.def_195 (not .def_194))) (let ((.def_196 (and .def_193 .def_190))) (let ((.def_197 (not .def_196))) (let ((.def_198 (and act_load@1 true .def_1))) (let ((.def_199 (and .def_198 .def_189))) (let ((.def_200 (not .def_199))) (let ((.def_201 (and .def_198 .def_190))) (let ((.def_202 (not .def_201))) (let ((.def_203 (and .def_198 .def_193))) (let ((.def_204 (not .def_203))) (let ((.def_205 (or .def_198 .def_193 .def_190 .def_189))) (let ((.def_206 (= fluent_robot_free_r0@0 fluent_robot_free_r0@1))) (let ((.def_207 (not .def_206))) (let ((.def_208 (=> .def_207 .def_205))) (let ((.def_209 (and act_move@1 true .def_24 .def_27))) (let ((.def_210 (and act_move@1 true .def_24 .def_30))) (let ((.def_211 (and .def_210 .def_209))) (let ((.def_212 (not .def_211))) (let ((.def_213 (or .def_210 .def_209))) (let ((.def_214 (= fluent_robot_at_r1_p1@0 fluent_robot_at_r1_p1@1))) (let ((.def_215 (not .def_214))) (let ((.def_216 (=> .def_215 .def_213))) (let ((.def_217 (and act_move@1 true .def_25 .def_27))) (let ((.def_218 (and act_move@1 true .def_25 .def_30))) (let ((.def_219 (and .def_218 .def_217))) (let ((.def_220 (not .def_219))) (let ((.def_221 (or .def_218 .def_217))) (let ((.def_222 (= fluent_robot_at_r0_p1@0 fluent_robot_at_r0_p1@1))) (let ((.def_223 (not .def_222))) (let ((.def_224 (=> .def_223 .def_221))) (let ((.def_225 (and act_move@1 true .def_24 .def_28))) (let ((.def_226 (and act_move@1 true .def_24 .def_31))) (let ((.def_227 (and .def_226 .def_225))) (let ((.def_228 (not .def_227))) (let ((.def_229 (or .def_226 .def_225))) (let ((.def_230 (= fluent_robot_at_r1_p0@0 fluent_robot_at_r1_p0@1))) (let ((.def_231 (not .def_230))) (let ((.def_232 (=> .def_231 .def_229))) (let ((.def_233 (and act_move@1 true .def_25 .def_28))) (let ((.def_234 (and act_move@1 true .def_25 .def_31))) (let ((.def_235 (and .def_234 .def_233))) (let ((.def_236 (not .def_235))) (let ((.def_237 (or .def_234 .def_233))) (let ((.def_238 (= fluent_robot_at_r0_p0@0 fluent_robot_at_r0_p0@1))) (let ((.def_239 (not .def_238))) (let ((.def_240 (=> .def_239 .def_237))) (let ((.def_241 (and .def_240 .def_236 .def_232 .def_228 .def_224 .def_220 .def_216 .def_212 .def_208 .def_204 .def_202 .def_200 .def_197 .def_195 .def_192 .def_188 .def_184 .def_182 .def_180 .def_177 .def_175 .def_172 .def_168 .def_164 .def_162 .def_160 .def_157 .def_155 .def_152 .def_148 .def_144 .def_142 .def_140 .def_137 .def_135 .def_132 .def_128 .def_124 .def_120 .def_116 .def_110 .def_106 .def_102 .def_98 .def_94 .def_90 .def_86 .def_84 .def_82 .def_79 .def_77 .def_74 .def_70 .def_66 .def_64 .def_62 .def_59 .def_57 .def_54 .def_50 .def_46))) (let ((.def_242 (= t@1 t@1))) (let ((.def_243 (and act_unload_at_depot@1 act_move@1 .def_242))) (let ((.def_244 (not .def_243))) (let ((.def_245 (and act_load@1 act_move@1 .def_242))) (let ((.def_246 (not .def_245))) (let ((.def_247 (and act_load@1 act_make_treatment@1 .def_112))) (let ((.def_248 (not .def_247))) (let ((.def_249 (and act_make_treatment@1 act_move@1 .def_242))) (let ((.def_250 (not .def_249))) (let ((.def_251 (and act_make_treatment@1 act_load_at_depot@1 .def_242))) (let ((.def_252 (not .def_251))) (let ((.def_253 (and act_load_at_depot@1 act_move@1 .def_242))) (let ((.def_254 (not .def_253))) (let ((.def_255 (and act_load@1 act_unload_at_depot@1 .def_242))) (let ((.def_256 (not .def_255))) (let ((.def_257 (+ t@1 dur_make_treatment@1))) (let ((.def_258 (= t@1 .def_257))) (let ((.def_259 (and act_load@1 act_make_treatment@1 .def_258))) (let ((.def_260 (not .def_259))) (let ((.def_261 (and act_load@1 act_make_treatment@1 .def_242))) (let ((.def_262 (not .def_261))) (let ((.def_263 (and act_unload_at_depot@1 act_make_treatment@1 .def_242))) (let ((.def_264 (not .def_263))) (let ((.def_265 (and act_unload_at_depot@1 act_load_at_depot@1 .def_242))) (let ((.def_266 (not .def_265))) (let ((.def_267 (and act_load@1 act_load_at_depot@1 .def_242))) (let ((.def_268 (not .def_267))) (let ((.def_269 (and .def_268 .def_266 .def_264 .def_262 .def_260 .def_256 .def_254 .def_252 .def_250 .def_248 .def_246 .def_244))) (let ((.def_270 (<= 0.0 t@1))) (let ((.def_271 (and .def_7 .def_40 .def_11))) (let ((.def_272 (ite .def_271 fluent_ready_plt0_p1_t0@1 fluent_ready_plt0_p0_t0@1))) (let ((.def_273 (= .def_272 true))) (let ((.def_274 (=> true .def_273))) (let ((.def_275 (and .def_112 .def_274))) (let ((.def_276 (ite .def_3 fluent_robot_free_r1@1 fluent_robot_free_r0@1))) (let ((.def_277 (= .def_276 true))) (let ((.def_278 (=> true .def_277))) (let ((.def_279 (and .def_7 .def_40))) (let ((.def_280 (ite .def_279 fluent_pallet_at_plt0_p1@1 fluent_pallet_at_plt0_p0@1))) (let ((.def_281 (= .def_280 true))) (let ((.def_282 (=> true .def_281))) (let ((.def_283 (and .def_3 .def_7))) (let ((.def_284 (ite .def_283 fluent_robot_has_r1_plt0@1 fluent_robot_has_r0_plt0@1))) (let ((.def_285 (= .def_284 false))) (let ((.def_286 (=> true .def_285))) (let ((.def_287 (ite .def_40 fluent_position_free_p1@1 fluent_position_free_p0@1))) (let ((.def_288 (= .def_287 false))) (let ((.def_289 (=> true .def_288))) (let ((.def_290 (and .def_242 .def_289 .def_286 .def_282 .def_278))) (let ((.def_291 (ite .def_40 fluent_position_free_p1@0 fluent_position_free_p0@0))) (let ((.def_292 (and fluent_treated_plt0_t0@0 .def_291))) (let ((.def_293 (<= .def_257 t@1))) (let ((.def_294 (< (- 1.0) .def_257))) (let ((.def_295 (and .def_294 .def_293))) (let ((.def_296 (=> .def_295 .def_292))) (let ((.def_297 (not fluent_treated_plt0_t0@0))) (let ((.def_298 (ite .def_283 fluent_robot_has_r1_plt0@0 fluent_robot_has_r0_plt0@0))) (let ((.def_299 (and .def_3 .def_41))) (let ((.def_300 (ite .def_299 fluent_robot_at_r1_p0@0 fluent_robot_at_r0_p0@0))) (let ((.def_301 (and .def_4 .def_40))) (let ((.def_302 (ite .def_301 fluent_robot_at_r0_p1@0 .def_300))) (let ((.def_303 (and .def_3 .def_40))) (let ((.def_304 (ite .def_303 fluent_robot_at_r1_p1@0 .def_302))) (let ((.def_305 (and .def_40 .def_11))) (let ((.def_306 (ite .def_305 false true))) (let ((.def_307 (and .def_306 .def_291 .def_304 .def_298 .def_297))) (let ((.def_308 (<= t@1 t@1))) (let ((.def_309 (< (- 1.0) t@1))) (let ((.def_310 (and .def_309 .def_308))) (let ((.def_311 (=> .def_310 .def_307))) (let ((.def_312 (<= dur_make_treatment@1 20.0))) (let ((.def_313 (<= 20.0 dur_make_treatment@1))) (let ((.def_314 (and .def_313 .def_312))) (let ((.def_315 (and .def_314 .def_293 .def_311 .def_296 .def_290 .def_275))) (let ((.def_316 (=> act_make_treatment@1 .def_315))) (let ((.def_317 (and .def_18 .def_17))) (let ((.def_318 (ite .def_317 fluent_robot_has_r1_plt0@1 fluent_robot_has_r0_plt0@1))) (let ((.def_319 (= .def_318 false))) (let ((.def_320 (=> true .def_319))) (let ((.def_321 (ite .def_18 fluent_robot_free_r1@1 fluent_robot_free_r0@1))) (let ((.def_322 (= .def_321 true))) (let ((.def_323 (=> true .def_322))) (let ((.def_324 (and .def_17 .def_21))) (let ((.def_325 (ite .def_324 fluent_pallet_at_plt0_p1@1 fluent_pallet_at_plt0_p0@1))) (let ((.def_326 (= .def_325 true))) (let ((.def_327 (=> true .def_326))) (let ((.def_328 (ite .def_317 fluent_robot_has_r1_plt0@0 fluent_robot_has_r0_plt0@0))) (let ((.def_329 (and .def_18 .def_22))) (let ((.def_330 (ite .def_329 fluent_robot_at_r1_p0@0 fluent_robot_at_r0_p0@0))) (let ((.def_331 (and .def_19 .def_21))) (let ((.def_332 (ite .def_331 fluent_robot_at_r0_p1@0 .def_330))) (let ((.def_333 (and .def_18 .def_21))) (let ((.def_334 (ite .def_333 fluent_robot_at_r1_p1@0 .def_332))) (let ((.def_335 (ite .def_21 true false))) (let ((.def_336 (and .def_335 .def_334 .def_328 .def_327 .def_323 .def_320))) (let ((.def_337 (=> act_unload_at_depot@1 .def_336))) (let ((.def_338 (and .def_33 .def_37))) (let ((.def_339 (ite .def_338 fluent_pallet_at_plt0_p1@1 fluent_pallet_at_plt0_p0@1))) (let ((.def_340 (= .def_339 false))) (let ((.def_341 (=> true .def_340))) (let ((.def_342 (and .def_34 .def_33))) (let ((.def_343 (ite .def_342 fluent_robot_has_r1_plt0@1 fluent_robot_has_r0_plt0@1))) (let ((.def_344 (= .def_343 true))) (let ((.def_345 (=> true .def_344))) (let ((.def_346 (ite .def_34 fluent_robot_free_r1@1 fluent_robot_free_r0@1))) (let ((.def_347 (= .def_346 false))) (let ((.def_348 (=> true .def_347))) (let ((.def_349 (ite .def_338 fluent_pallet_at_plt0_p1@0 fluent_pallet_at_plt0_p0@0))) (let ((.def_350 (ite .def_34 fluent_robot_free_r1@0 fluent_robot_free_r0@0))) (let ((.def_351 (and .def_34 .def_38))) (let ((.def_352 (ite .def_351 fluent_robot_at_r1_p0@0 fluent_robot_at_r0_p0@0))) (let ((.def_353 (and .def_35 .def_37))) (let ((.def_354 (ite .def_353 fluent_robot_at_r0_p1@0 .def_352))) (let ((.def_355 (and .def_34 .def_37))) (let ((.def_356 (ite .def_355 fluent_robot_at_r1_p1@0 .def_354))) (let ((.def_357 (ite .def_37 true false))) (let ((.def_358 (and .def_357 .def_356 .def_350 .def_349 .def_348 .def_345 .def_341))) (let ((.def_359 (=> act_load_at_depot@1 .def_358))) (let ((.def_360 (ite .def_8 fluent_position_free_p1@1 fluent_position_free_p0@1))) (let ((.def_361 (= .def_360 true))) (let ((.def_362 (=> true .def_361))) (let ((.def_363 (= fluent_treated_plt0_t0@1 true))) (let ((.def_364 (=> true .def_363))) (let ((.def_365 (and .def_0 .def_6))) (let ((.def_366 (ite .def_365 fluent_robot_has_r1_plt0@1 fluent_robot_has_r0_plt0@1))) (let ((.def_367 (= .def_366 true))) (let ((.def_368 (=> true .def_367))) (let ((.def_369 (and .def_6 .def_8))) (let ((.def_370 (ite .def_369 fluent_pallet_at_plt0_p1@1 fluent_pallet_at_plt0_p0@1))) (let ((.def_371 (= .def_370 false))) (let ((.def_372 (=> true .def_371))) (let ((.def_373 (and .def_6 .def_8 .def_12))) (let ((.def_374 (ite .def_373 fluent_ready_plt0_p1_t0@1 fluent_ready_plt0_p0_t0@1))) (let ((.def_375 (= .def_374 false))) (let ((.def_376 (=> true .def_375))) (let ((.def_377 (ite .def_0 fluent_robot_free_r1@1 fluent_robot_free_r0@1))) (let ((.def_378 (= .def_377 false))) (let ((.def_379 (=> true .def_378))) (let ((.def_380 (ite .def_369 fluent_pallet_at_plt0_p1@0 fluent_pallet_at_plt0_p0@0))) (let ((.def_381 (ite .def_0 fluent_robot_free_r1@0 fluent_robot_free_r0@0))) (let ((.def_382 (and .def_0 .def_9))) (let ((.def_383 (ite .def_382 fluent_robot_at_r1_p0@0 fluent_robot_at_r0_p0@0))) (let ((.def_384 (and .def_1 .def_8))) (let ((.def_385 (ite .def_384 fluent_robot_at_r0_p1@0 .def_383))) (let ((.def_386 (and .def_0 .def_8))) (let ((.def_387 (ite .def_386 fluent_robot_at_r1_p1@0 .def_385))) (let ((.def_388 (ite .def_373 fluent_ready_plt0_p1_t0@0 fluent_ready_plt0_p0_t0@0))) (let ((.def_389 (and .def_388 .def_387 .def_381 .def_380 .def_379 .def_376 .def_372 .def_368 .def_364 .def_362))) (let ((.def_390 (=> act_load@1 .def_389))) (let ((.def_391 (and .def_27 .def_31))) (let ((.def_392 (ite .def_391 1.0 0.0))) (let ((.def_393 (and .def_28 .def_30))) (let ((.def_394 (ite .def_393 1.0 .def_392))) (let ((.def_395 (and .def_27 .def_30))) (let ((.def_396 (ite .def_395 0.0 .def_394))) (let ((.def_397 (ite .def_24 fluent_battery_level_r1@0 fluent_battery_level_r0@0))) (let ((.def_398 (- .def_397 .def_396))) (let ((.def_399 (ite .def_24 fluent_battery_level_r1@1 fluent_battery_level_r0@1))) (let ((.def_400 (= .def_399 .def_398))) (let ((.def_401 (=> true .def_400))) (let ((.def_402 (and .def_24 .def_28))) (let ((.def_403 (ite .def_402 fluent_robot_at_r1_p0@1 fluent_robot_at_r0_p0@1))) (let ((.def_404 (and .def_25 .def_27))) (let ((.def_405 (ite .def_404 fluent_robot_at_r0_p1@1 .def_403))) (let ((.def_406 (and .def_24 .def_27))) (let ((.def_407 (ite .def_406 fluent_robot_at_r1_p1@1 .def_405))) (let ((.def_408 (= .def_407 false))) (let ((.def_409 (=> true .def_408))) (let ((.def_410 (and .def_24 .def_31))) (let ((.def_411 (ite .def_410 fluent_robot_at_r1_p0@1 fluent_robot_at_r0_p0@1))) (let ((.def_412 (and .def_25 .def_30))) (let ((.def_413 (ite .def_412 fluent_robot_at_r0_p1@1 .def_411))) (let ((.def_414 (and .def_24 .def_30))) (let ((.def_415 (ite .def_414 fluent_robot_at_r1_p1@1 .def_413))) (let ((.def_416 (= .def_415 true))) (let ((.def_417 (=> true .def_416))) (let ((.def_418 (<= .def_396 .def_397))) (let ((.def_419 (ite .def_402 fluent_robot_at_r1_p0@0 fluent_robot_at_r0_p0@0))) (let ((.def_420 (ite .def_404 fluent_robot_at_r0_p1@0 .def_419))) (let ((.def_421 (ite .def_406 fluent_robot_at_r1_p1@0 .def_420))) (let ((.def_422 (= parameter_move_frompos@1 parameter_move_topos@1))) (let ((.def_423 (not .def_422))) (let ((.def_424 (and .def_423 .def_421 .def_418 .def_417 .def_409 .def_401))) (let ((.def_425 (=> act_move@1 .def_424))) (let ((.def_426 (<= 0.0 fluent_battery_level_r0@0))) (let ((.def_427 (<= fluent_battery_level_r1@0 100.0))) (let ((.def_428 (<= 0.0 fluent_battery_level_r1@0))) (let ((.def_429 (<= fluent_battery_level_r0@0 100.0))) (let ((.def_430 (= false false))) (let ((.def_431 (= fluent_pallet_at_plt0_p0@0 false))) (let ((.def_432 (= fluent_treated_plt0_t0@0 false))) (let ((.def_433 (= fluent_ready_plt0_p1_t0@0 false))) (let ((.def_434 (= fluent_ready_plt0_p0_t0@0 false))) (let ((.def_435 (= fluent_robot_has_r1_plt0@0 false))) (let ((.def_436 (= fluent_robot_has_r0_plt0@0 false))) (let ((.def_437 (= fluent_robot_at_r1_p0@0 false))) (let ((.def_438 (= fluent_robot_at_r0_p0@0 false))) (let ((.def_439 (= true true))) (let ((.def_440 (= fluent_position_free_p1@0 true))) (let ((.def_441 (= fluent_position_free_p0@0 true))) (let ((.def_442 (= 0.0 0.0))) (let ((.def_443 (= 1.0 1.0))) (let ((.def_444 (= fluent_battery_level_r1@0 4.0))) (let ((.def_445 (= fluent_battery_level_r0@0 4.0))) (let ((.def_446 (= fluent_pallet_at_plt0_p1@0 true))) (let ((.def_447 (= fluent_robot_free_r1@0 true))) (let ((.def_448 (= fluent_robot_at_r1_p1@0 true))) (let ((.def_449 (= fluent_robot_free_r0@0 true))) (let ((.def_450 (= fluent_robot_at_r0_p1@0 true))) (let ((.def_451 (and .def_450 .def_449 .def_448 .def_447 .def_446 .def_445 .def_444 .def_442 .def_443 .def_443 .def_442 .def_439 .def_441 .def_440 .def_439 .def_438 .def_437 .def_436 .def_435 .def_434 .def_433 .def_432 .def_431 .def_430 .def_430 .def_429 .def_428 .def_427 .def_426))) (let ((.def_452 (and .def_451 .def_425 .def_390 .def_359 .def_337 .def_316 .def_270 .def_269 true .def_241 .def_42 .def_39 .def_36 .def_33 .def_32 .def_29 .def_26 .def_23 .def_20 .def_17 .def_16 .def_15 .def_14 .def_13 .def_12 .def_11 .def_10 .def_7 .def_6 .def_5 .def_2 true))) .def_452))))))))))))))))))))))))))))))))))))))))))))))))))))))))))))))))))))))))))))))))))))))))))))))))))))))))))))))))))))))))))))))))))))))))))))))))))))))))))))))))))))))))))))))))))))))))))))))))))))))))))))))))))))))))))))))))))))))))))))))))))))))))))))))))))))))))))))))))))))))))))))))))))))))))))))))))))))))))))))))))))))))))))))))))))))))))))))))))))))))))))))))))))))))))))))))))))))))))))))))))))))))))))))))))))))))))))))))))))))))))))))))))))))))
(check-sat)


